; DUP4 SWAP3 DUP2 DUP3 SWAP2 => DUP1 DUP2 DUP6 SWAP5
(set-option :produce-proofs true)
; 
(set-info :status unknown)
(declare-fun storage_t ((_ BitVec 256) (_ BitVec 256) (_ BitVec 256) (_ BitVec 256) Int (_ BitVec 256)) (_ BitVec 256))
(declare-fun storage_s ((_ BitVec 256) (_ BitVec 256) (_ BitVec 256) (_ BitVec 256) Int (_ BitVec 256)) (_ BitVec 256))
(declare-fun exc_halt_t (Int) Bool)
(declare-fun exc_halt_s (Int) Bool)
(declare-fun stack_t ((_ BitVec 256) (_ BitVec 256) (_ BitVec 256) (_ BitVec 256) Int (_ BitVec 6)) (_ BitVec 256))
(declare-fun stack_s ((_ BitVec 256) (_ BitVec 256) (_ BitVec 256) (_ BitVec 256) Int (_ BitVec 6)) (_ BitVec 256))
(declare-fun sc_t (Int) (_ BitVec 6))
(declare-fun sc_s (Int) (_ BitVec 6))
(declare-fun used_gas_t ((_ BitVec 256) (_ BitVec 256) (_ BitVec 256) (_ BitVec 256) Int) Int)
(declare-fun used_gas_s ((_ BitVec 256) (_ BitVec 256) (_ BitVec 256) (_ BitVec 256) Int) Int)
(assert
 (exists ((x_0 (_ BitVec 256)) (x_1 (_ BitVec 256)) (x_2 (_ BitVec 256)) (x_3 (_ BitVec 256)) )(let (($x6891 (forall ((w (_ BitVec 256)) )(let ((?x6105 (storage_t x_0 x_1 x_2 x_3 4 w)))
 (let ((?x6350 (storage_s x_0 x_1 x_2 x_3 5 w)))
 (= ?x6350 ?x6105))))
 ))
 (let (($x8747 (exc_halt_t 4)))
 (let (($x3979 (exc_halt_s 5)))
 (let (($x550 (= $x3979 $x8747)))
 (let (($x7646 (forall ((n (_ BitVec 6)) )(let ((?x6088 (stack_t x_0 x_1 x_2 x_3 4 n)))
 (let ((?x6343 (stack_s x_0 x_1 x_2 x_3 5 n)))
 (let (($x7009 (= ?x6343 ?x6088)))
 (let ((?x9469 (sc_t 4)))
 (let (($x3598 (bvsle ?x9469 n)))
 (or $x3598 $x7009)))))))
 ))
 (let ((?x9469 (sc_t 4)))
 (let ((?x805 (sc_s 5)))
 (let (($x670 (= ?x805 ?x9469)))
 (let ((?x6269 (used_gas_t x_0 x_1 x_2 x_3 0)))
 (let ((?x6947 (used_gas_s x_0 x_1 x_2 x_3 0)))
 (let (($x6909 (= ?x6947 ?x6269)))
 (let (($x6911 (forall ((w (_ BitVec 256)) )(let ((?x6254 (storage_t x_0 x_1 x_2 x_3 0 w)))
 (let ((?x6786 (storage_s x_0 x_1 x_2 x_3 0 w)))
 (= ?x6786 ?x6254))))
 ))
 (let (($x56 (exc_halt_t 0)))
 (let (($x57 (exc_halt_s 0)))
 (let (($x58 (= $x57 $x56)))
 (let (($x6971 (forall ((n (_ BitVec 6)) )(let ((?x6215 (stack_t x_0 x_1 x_2 x_3 0 n)))
 (let ((?x8632 (stack_s x_0 x_1 x_2 x_3 0 n)))
 (let (($x6216 (= ?x8632 ?x6215)))
 (let ((?x63 (sc_t 0)))
 (let (($x3675 (bvsle ?x63 n)))
 (or $x3675 $x6216)))))))
 ))
 (let ((?x63 (sc_t 0)))
 (let ((?x72 (sc_s 0)))
 (let (($x73 (= ?x72 ?x63)))
 (let (($x7660 (= $x8747 (or (exc_halt_t 3) (not (bvsle (_ bv0 6) (bvadd (_ bv58 6) (sc_t 3))))))))
 (let (($x6560 (forall ((w (_ BitVec 256)) )(let ((?x6161 (storage_t x_0 x_1 x_2 x_3 3 w)))
 (let ((?x6105 (storage_t x_0 x_1 x_2 x_3 4 w)))
 (= ?x6105 ?x6161))))
 ))
 (let (($x5373 (forall ((n (_ BitVec 6)) )(let ((?x6030 (stack_t x_0 x_1 x_2 x_3 3 n)))
 (let ((?x6088 (stack_t x_0 x_1 x_2 x_3 4 n)))
 (let (($x6580 (= ?x6088 ?x6030)))
 (or $x6580 (bvsle (bvadd (_ bv58 6) (sc_t 3)) n))))))
 ))
 (let ((?x2012 (sc_t 3)))
 (let (($x3349 (= ?x9469 ?x2012)))
 (let ((?x6101 (used_gas_t x_0 x_1 x_2 x_3 4)))
 (let (($x6245 (= ?x6101 (+ 3 (used_gas_t x_0 x_1 x_2 x_3 3)))))
 (let ((?x7996 (bvadd (_ bv62 6) ?x2012)))
 (let ((?x6601 (stack_t x_0 x_1 x_2 x_3 3 ?x7996)))
 (let (($x6243 (= (stack_t x_0 x_1 x_2 x_3 4 (bvadd (_ bv62 6) ?x9469)) ?x6601)))
 (let ((?x1906 (bvadd (_ bv61 6) ?x2012)))
 (let ((?x6618 (stack_t x_0 x_1 x_2 x_3 3 ?x1906)))
 (let ((?x6591 (stack_t x_0 x_1 x_2 x_3 4 (bvadd (_ bv61 6) ?x9469))))
 (let ((?x1008 (bvadd (_ bv60 6) ?x2012)))
 (let ((?x6166 (stack_t x_0 x_1 x_2 x_3 3 ?x1008)))
 (let (($x7672 (= (stack_t x_0 x_1 x_2 x_3 4 (bvadd (_ bv59 6) ?x9469)) (stack_t x_0 x_1 x_2 x_3 3 (bvadd (_ bv59 6) ?x2012)))))
 (let ((?x3673 (bvadd (_ bv63 6) ?x2012)))
 (let ((?x6623 (stack_t x_0 x_1 x_2 x_3 3 ?x3673)))
 (let ((?x3637 (bvadd (_ bv63 6) ?x9469)))
 (let ((?x6596 (stack_t x_0 x_1 x_2 x_3 4 ?x3637)))
 (let (($x3630 (not (= ((_ extract 6 6) (bvadd (_ bv1 7) (concat (_ bv0 1) (sc_t 2)))) (_ bv0 1)))))
 (let (($x903 (exc_halt_t 2)))
 (let (($x8030 (exc_halt_t 3)))
 (let (($x6595 (forall ((w (_ BitVec 256)) )(let ((?x5977 (storage_t x_0 x_1 x_2 x_3 2 w)))
 (let ((?x6161 (storage_t x_0 x_1 x_2 x_3 3 w)))
 (= ?x6161 ?x5977))))
 ))
 (let (($x7228 (forall ((n (_ BitVec 6)) )(let ((?x5662 (stack_t x_0 x_1 x_2 x_3 2 n)))
 (let ((?x6030 (stack_t x_0 x_1 x_2 x_3 3 n)))
 (let (($x6614 (= ?x6030 ?x5662)))
 (or (bvsle (bvadd (_ bv58 6) (sc_t 2)) n) $x6614)))))
 ))
 (let (($x3582 (= ?x2012 (bvadd (_ bv1 6) (sc_t 2)))))
 (let ((?x5887 (used_gas_t x_0 x_1 x_2 x_3 3)))
 (let (($x6603 (= ?x5887 (+ 3 (used_gas_t x_0 x_1 x_2 x_3 2)))))
 (let ((?x4056 (sc_t 2)))
 (let ((?x7929 (bvadd (_ bv63 6) ?x4056)))
 (let ((?x6642 (stack_t x_0 x_1 x_2 x_3 2 ?x7929)))
 (let ((?x2229 (bvadd (_ bv62 6) ?x4056)))
 (let ((?x6653 (stack_t x_0 x_1 x_2 x_3 2 ?x2229)))
 (let ((?x2159 (bvadd (_ bv61 6) ?x4056)))
 (let ((?x6619 (stack_t x_0 x_1 x_2 x_3 2 ?x2159)))
 (let ((?x2153 (bvadd (_ bv60 6) ?x4056)))
 (let ((?x6639 (stack_t x_0 x_1 x_2 x_3 2 ?x2153)))
 (let (($x7400 (= (stack_t x_0 x_1 x_2 x_3 3 (bvadd (_ bv59 6) ?x4056)) (stack_t x_0 x_1 x_2 x_3 2 (bvadd (_ bv59 6) ?x4056)))))
 (let ((?x7413 (bvadd (_ bv58 6) ?x4056)))
 (let ((?x2303 (stack_t x_0 x_1 x_2 x_3 2 ?x7413)))
 (let (($x3572 (not (= ((_ extract 6 6) (bvadd (_ bv1 7) (concat (_ bv0 1) (sc_t 1)))) (_ bv0 1)))))
 (let (($x1920 (exc_halt_t 1)))
 (let (($x970 (not (bvsle (_ bv0 6) (bvadd (_ bv62 6) (sc_t 1))))))
 (let (($x1304 (= $x903 (or $x970 $x1920 $x3572))))
 (let (($x6630 (forall ((w (_ BitVec 256)) )(let ((?x5466 (storage_t x_0 x_1 x_2 x_3 1 w)))
 (let ((?x5977 (storage_t x_0 x_1 x_2 x_3 2 w)))
 (= ?x5977 ?x5466))))
 ))
 (let (($x6629 (forall ((n (_ BitVec 6)) )(let ((?x5554 (stack_t x_0 x_1 x_2 x_3 1 n)))
 (let ((?x5662 (stack_t x_0 x_1 x_2 x_3 2 n)))
 (let ((?x4023 (sc_t 1)))
 (let ((?x4102 (bvadd (_ bv62 6) ?x4023)))
 (let (($x1002 (bvsle ?x4102 n)))
 (or $x1002 (= ?x5662 ?x5554))))))))
 ))
 (let (($x462 (= ?x4056 (bvadd (_ bv1 6) (sc_t 1)))))
 (let ((?x5661 (used_gas_t x_0 x_1 x_2 x_3 2)))
 (let (($x6648 (= ?x5661 (+ 3 (used_gas_t x_0 x_1 x_2 x_3 1)))))
 (let ((?x4023 (sc_t 1)))
 (let ((?x2639 (bvadd (_ bv63 6) ?x4023)))
 (let ((?x6700 (stack_t x_0 x_1 x_2 x_3 1 ?x2639)))
 (let ((?x4102 (bvadd (_ bv62 6) ?x4023)))
 (let ((?x6641 (stack_t x_0 x_1 x_2 x_3 1 ?x4102)))
 (let (($x6184 (= ?x6642 ?x6641)))
 (let (($x2902 (not (bvsle (_ bv0 6) (bvadd (_ bv63 6) ?x63)))))
 (let (($x1311 (not (= ((_ extract 6 6) (bvadd (_ bv1 7) (concat (_ bv0 1) ?x63))) (_ bv0 1)))))
 (let (($x6676 (forall ((w (_ BitVec 256)) )(let ((?x6254 (storage_t x_0 x_1 x_2 x_3 0 w)))
 (let ((?x5466 (storage_t x_0 x_1 x_2 x_3 1 w)))
 (= ?x5466 ?x6254))))
 ))
 (let (($x7452 (forall ((n (_ BitVec 6)) )(let ((?x6215 (stack_t x_0 x_1 x_2 x_3 0 n)))
 (let ((?x5554 (stack_t x_0 x_1 x_2 x_3 1 n)))
 (let (($x6667 (= ?x5554 ?x6215)))
 (let ((?x63 (sc_t 0)))
 (let ((?x129 (bvadd (_ bv63 6) ?x63)))
 (let (($x2698 (bvsle ?x129 n)))
 (or $x2698 $x6667))))))))
 ))
 (let (($x3747 (= ?x4023 (bvadd (_ bv1 6) ?x63))))
 (let ((?x6829 (used_gas_t x_0 x_1 x_2 x_3 1)))
 (let (($x6663 (= ?x6829 (+ 3 ?x6269))))
 (let ((?x129 (bvadd (_ bv63 6) ?x63)))
 (let ((?x6669 (stack_t x_0 x_1 x_2 x_3 0 ?x129)))
 (let (($x6671 (= (stack_t x_0 x_1 x_2 x_3 1 ?x129) ?x6669)))
 (let (($x9879 (= $x3979 (or (exc_halt_s 4) (not (bvsle (_ bv0 6) (bvadd (_ bv61 6) (sc_s 4))))))))
 (let (($x6716 (forall ((w (_ BitVec 256)) )(let ((?x6325 (storage_s x_0 x_1 x_2 x_3 4 w)))
 (let ((?x6350 (storage_s x_0 x_1 x_2 x_3 5 w)))
 (= ?x6350 ?x6325))))
 ))
 (let (($x299 (forall ((n (_ BitVec 6)) )(let ((?x6314 (stack_s x_0 x_1 x_2 x_3 4 n)))
 (let ((?x6343 (stack_s x_0 x_1 x_2 x_3 5 n)))
 (let (($x6743 (= ?x6343 ?x6314)))
 (let ((?x4305 (sc_s 4)))
 (let ((?x10003 (bvadd (_ bv61 6) ?x4305)))
 (let (($x3353 (bvsle ?x10003 n)))
 (or $x3353 $x6743))))))))
 ))
 (let ((?x4305 (sc_s 4)))
 (let (($x3364 (= ?x805 ?x4305)))
 (let ((?x7057 (used_gas_s x_0 x_1 x_2 x_3 5)))
 (let (($x6739 (= ?x7057 (+ 3 (used_gas_s x_0 x_1 x_2 x_3 4)))))
 (let (($x7469 (= (stack_s x_0 x_1 x_2 x_3 5 (bvadd (_ bv62 6) ?x805)) (stack_s x_0 x_1 x_2 x_3 4 (bvadd (_ bv62 6) ?x4305)))))
 (let ((?x374 (bvadd (_ bv63 6) ?x4305)))
 (let ((?x6740 (stack_s x_0 x_1 x_2 x_3 4 ?x374)))
 (let ((?x930 (bvadd (_ bv63 6) ?x805)))
 (let ((?x6724 (stack_s x_0 x_1 x_2 x_3 5 ?x930)))
 (let (($x3914 (not (= ((_ extract 6 6) (bvadd (_ bv1 7) (concat (_ bv0 1) (sc_s 3)))) (_ bv0 1)))))
 (let (($x292 (exc_halt_s 3)))
 (let (($x64 (exc_halt_s 4)))
 (let (($x6730 (forall ((w (_ BitVec 256)) )(let ((?x7177 (storage_s x_0 x_1 x_2 x_3 3 w)))
 (let ((?x6325 (storage_s x_0 x_1 x_2 x_3 4 w)))
 (= ?x6325 ?x7177))))
 ))
 (let (($x3183 (forall ((n (_ BitVec 6)) )(let ((?x6308 (stack_s x_0 x_1 x_2 x_3 3 n)))
 (let ((?x6314 (stack_s x_0 x_1 x_2 x_3 4 n)))
 (let (($x6736 (= ?x6314 ?x6308)))
 (or $x6736 (bvsle (bvadd (_ bv61 6) (sc_s 3)) n))))))
 ))
 (let (($x3801 (= ?x4305 (bvadd (_ bv1 6) (sc_s 3)))))
 (let ((?x6298 (used_gas_s x_0 x_1 x_2 x_3 4)))
 (let (($x6747 (= ?x6298 (+ 3 (used_gas_s x_0 x_1 x_2 x_3 3)))))
 (let ((?x275 (sc_s 3)))
 (let ((?x3193 (bvadd (_ bv63 6) ?x275)))
 (let ((?x1944 (stack_s x_0 x_1 x_2 x_3 3 ?x3193)))
 (let (($x7360 (= (stack_s x_0 x_1 x_2 x_3 4 (bvadd (_ bv62 6) ?x275)) (stack_s x_0 x_1 x_2 x_3 3 (bvadd (_ bv62 6) ?x275)))))
 (let ((?x223 (bvadd (_ bv61 6) ?x275)))
 (let ((?x6780 (stack_s x_0 x_1 x_2 x_3 3 ?x223)))
 (let (($x3820 (not (= ((_ extract 6 6) (bvadd (_ bv1 7) (concat (_ bv0 1) (sc_s 2)))) (_ bv0 1)))))
 (let (($x1053 (not (bvsle (_ bv0 6) (bvadd (_ bv62 6) (sc_s 2))))))
 (let (($x247 (exc_halt_s 2)))
 (let (($x6757 (forall ((w (_ BitVec 256)) )(let ((?x6287 (storage_s x_0 x_1 x_2 x_3 2 w)))
 (let ((?x7177 (storage_s x_0 x_1 x_2 x_3 3 w)))
 (= ?x7177 ?x6287))))
 ))
 (let (($x7023 (forall ((n (_ BitVec 6)) )(let ((?x6271 (stack_s x_0 x_1 x_2 x_3 2 n)))
 (let ((?x6308 (stack_s x_0 x_1 x_2 x_3 3 n)))
 (let (($x6438 (= ?x6308 ?x6271)))
 (let ((?x218 (sc_s 2)))
 (let ((?x3182 (bvadd (_ bv62 6) ?x218)))
 (let (($x706 (bvsle ?x3182 n)))
 (or $x706 $x6438))))))))
 ))
 (let (($x3819 (= ?x275 (bvadd (_ bv1 6) (sc_s 2)))))
 (let ((?x6293 (used_gas_s x_0 x_1 x_2 x_3 3)))
 (let (($x7005 (= ?x6293 (+ 3 (used_gas_s x_0 x_1 x_2 x_3 2)))))
 (let ((?x218 (sc_s 2)))
 (let ((?x3831 (bvadd (_ bv63 6) ?x218)))
 (let ((?x6982 (stack_s x_0 x_1 x_2 x_3 2 ?x3831)))
 (let (($x7004 (= (stack_s x_0 x_1 x_2 x_3 3 ?x3831) ?x6982)))
 (let ((?x3182 (bvadd (_ bv62 6) ?x218)))
 (let ((?x2470 (stack_s x_0 x_1 x_2 x_3 2 ?x3182)))
 (let (($x3622 (= $x247 (or (exc_halt_s 1) (not (bvsle (_ bv0 6) (bvadd (_ bv60 6) (sc_s 1))))))))
 (let (($x6996 (forall ((w (_ BitVec 256)) )(let ((?x6240 (storage_s x_0 x_1 x_2 x_3 1 w)))
 (let ((?x6287 (storage_s x_0 x_1 x_2 x_3 2 w)))
 (= ?x6287 ?x6240))))
 ))
 (let (($x7054 (forall ((n (_ BitVec 6)) )(let ((?x154 (sc_s 1)))
 (let ((?x8708 (bvadd (_ bv60 6) ?x154)))
 (let (($x8622 (bvsle ?x8708 n)))
 (let ((?x6229 (stack_s x_0 x_1 x_2 x_3 1 n)))
 (let ((?x6271 (stack_s x_0 x_1 x_2 x_3 2 n)))
 (let (($x6994 (= ?x6271 ?x6229)))
 (or $x6994 $x8622))))))))
 ))
 (let ((?x154 (sc_s 1)))
 (let (($x3835 (= ?x218 ?x154)))
 (let ((?x7201 (used_gas_s x_0 x_1 x_2 x_3 2)))
 (let (($x6991 (= ?x7201 (+ 3 (used_gas_s x_0 x_1 x_2 x_3 1)))))
 (let ((?x8345 (bvadd (_ bv61 6) ?x154)))
 (let ((?x6127 (stack_s x_0 x_1 x_2 x_3 1 ?x8345)))
 (let ((?x3842 (bvadd (_ bv63 6) ?x154)))
 (let ((?x6134 (stack_s x_0 x_1 x_2 x_3 1 ?x3842)))
 (let (($x3827 (not (= ((_ extract 6 6) (bvadd (_ bv1 7) (concat (_ bv0 1) ?x72))) (_ bv0 1)))))
 (let (($x189 (exc_halt_s 1)))
 (let (($x6988 (forall ((w (_ BitVec 256)) )(let ((?x6786 (storage_s x_0 x_1 x_2 x_3 0 w)))
 (let ((?x6240 (storage_s x_0 x_1 x_2 x_3 1 w)))
 (= ?x6240 ?x6786))))
 ))
 (let (($x7189 (forall ((n (_ BitVec 6)) )(let ((?x8632 (stack_s x_0 x_1 x_2 x_3 0 n)))
 (let ((?x6229 (stack_s x_0 x_1 x_2 x_3 1 n)))
 (let (($x6985 (= ?x6229 ?x8632)))
 (or $x6985 (bvsle (bvadd (_ bv60 6) (sc_s 0)) n))))))
 ))
 (let (($x3843 (= ?x154 (bvadd (_ bv1 6) ?x72))))
 (let ((?x6228 (used_gas_s x_0 x_1 x_2 x_3 1)))
 (let (($x6406 (= ?x6228 (+ 3 ?x6947))))
 (let ((?x3338 (bvadd (_ bv63 6) ?x72)))
 (let ((?x6402 (stack_s x_0 x_1 x_2 x_3 0 ?x3338)))
 (let ((?x8534 (bvadd (_ bv62 6) ?x72)))
 (let ((?x6107 (stack_s x_0 x_1 x_2 x_3 0 ?x8534)))
 (let ((?x8501 (bvadd (_ bv61 6) ?x72)))
 (let ((?x6042 (stack_s x_0 x_1 x_2 x_3 0 ?x8501)))
 (let ((?x7254 (bvadd (_ bv60 6) ?x72)))
 (let ((?x7382 (stack_s x_0 x_1 x_2 x_3 0 ?x7254)))
 (let (($x883 (forall ((w (_ BitVec 256)) )(let ((?x6786 (storage_s x_0 x_1 x_2 x_3 0 w)))
 (= ?x6786 (_ bv0 256))))
 ))
 (let (($x9996 (= ?x6947 0)))
 (let (($x3853 (not $x57)))
 (let (($x7465 (= (stack_s x_0 x_1 x_2 x_3 0 (_ bv3 6)) x_3)))
 (let (($x6778 (= (stack_s x_0 x_1 x_2 x_3 0 (_ bv2 6)) x_2)))
 (let (($x6163 (= (stack_s x_0 x_1 x_2 x_3 0 (_ bv1 6)) x_1)))
 (let (($x6196 (= (stack_s x_0 x_1 x_2 x_3 0 (_ bv0 6)) x_0)))
 (let (($x3266 (= ?x72 (_ bv4 6))))
 (and $x3266 $x6196 $x6163 $x6778 $x7465 $x3853 $x9996 $x883 (= ?x6134 ?x7382) (= (stack_s x_0 x_1 x_2 x_3 1 ?x7254) ?x7382) (= (stack_s x_0 x_1 x_2 x_3 1 ?x8501) ?x6042) (= (stack_s x_0 x_1 x_2 x_3 1 ?x8534) ?x6107) (= (stack_s x_0 x_1 x_2 x_3 1 ?x3338) ?x6402) $x6406 $x3843 $x7189 $x6988 (= $x189 (or $x57 $x3827 (not (bvsle (_ bv0 6) ?x7254)))) (= ?x6982 (stack_s x_0 x_1 x_2 x_3 1 (bvadd (_ bv60 6) ?x154))) (= (stack_s x_0 x_1 x_2 x_3 2 (bvadd (_ bv60 6) ?x218)) ?x6134) (= (stack_s x_0 x_1 x_2 x_3 2 (bvadd (_ bv61 6) ?x218)) ?x6127) (= ?x2470 (stack_s x_0 x_1 x_2 x_3 1 (bvadd (_ bv62 6) ?x154))) $x6991 $x3835 $x7054 $x6996 $x3622 (= ?x1944 ?x2470) (= (stack_s x_0 x_1 x_2 x_3 3 ?x3182) ?x2470) $x7004 $x7005 $x3819 $x7023 $x6757 (= $x292 (or $x247 $x1053 $x3820)) (= ?x6740 ?x6780) (= (stack_s x_0 x_1 x_2 x_3 4 ?x223) ?x6780) $x7360 (= (stack_s x_0 x_1 x_2 x_3 4 ?x3193) ?x1944) $x6747 $x3801 $x3183 $x6730 (= $x64 (or $x292 $x3914 (not (bvsle (_ bv0 6) ?x223)))) (= ?x6724 (stack_s x_0 x_1 x_2 x_3 4 (bvadd (_ bv61 6) ?x4305))) (= (stack_s x_0 x_1 x_2 x_3 5 (bvadd (_ bv61 6) ?x805)) ?x6740) $x7469 $x6739 $x3364 $x299 $x6716 $x9879 (= ?x6700 ?x6669) $x6671 $x6663 $x3747 $x7452 $x6676 (= $x1920 (or $x56 $x1311 $x2902)) $x6184 (= (stack_t x_0 x_1 x_2 x_3 2 ?x4102) ?x6641) (= (stack_t x_0 x_1 x_2 x_3 2 ?x2639) ?x6700) $x6648 $x462 $x6629 $x6630 $x1304 (= ?x6623 ?x2303) (= (stack_t x_0 x_1 x_2 x_3 3 ?x7413) ?x2303) $x7400 (= (stack_t x_0 x_1 x_2 x_3 3 ?x2153) ?x6639) (= (stack_t x_0 x_1 x_2 x_3 3 ?x2159) ?x6619) (= (stack_t x_0 x_1 x_2 x_3 3 ?x2229) ?x6653) (= (stack_t x_0 x_1 x_2 x_3 3 ?x7929) ?x6642) $x6603 $x3582 $x7228 $x6595 (= $x8030 (or $x903 $x3630 (not (bvsle (_ bv0 6) ?x7413)))) (= ?x6596 (stack_t x_0 x_1 x_2 x_3 3 (bvadd (_ bv58 6) ?x2012))) (= (stack_t x_0 x_1 x_2 x_3 4 (bvadd (_ bv58 6) ?x9469)) ?x6623) $x7672 (= (stack_t x_0 x_1 x_2 x_3 4 (bvadd (_ bv60 6) ?x9469)) ?x6166) (= ?x6591 ?x6618) $x6243 $x6245 $x3349 $x5373 $x6560 $x7660 $x73 $x6971 $x58 $x6911 $x6909 (not (and $x670 $x7646 $x550 $x6891))))))))))))))))))))))))))))))))))))))))))))))))))))))))))))))))))))))))))))))))))))))))))))))))))))))))))))))))))))))))))))))))))))))))))))))))))))))))))))))))))
 )
(check-sat)
(get-proof)
